words_hard_train/1388.qaiger
aag 35 12 0 1 23
2
4
8
10
14
16
24
26
32
36
42
46
71
6 3 4
12 9 11
18 15 17
20 12 18
22 6 20
28 25 27
30 22 28
34 33 11
38 36 4
40 35 39
44 42 26
48 47 17
50 44 49
52 46 16
54 51 53
56 32 10
58 54 57
60 40 59
62 37 5
64 61 63
66 30 64
68 31 65
70 67 69
i0 2 y2[0]
i1 2 y2[7]
i2 2 y2[2]
i3 2 y2[6]
i4 2 y2[3]
i5 2 y2[5]
i6 2 y2[1]
i7 2 y2[4]
i8 1 x1[2]
i9 1 x1[3]
i10 1 x1[0]
i11 1 x1[1]
o0 bv[0]
c
simplified
  >=
    add
      << 3
        1 x1
      << 3
        1 x1
    unary minus
      2 y2
