words_hard_train/1388.qaiger.qdimacs
p cnf 35 70
a 16 18 21 23 0
e 1 2 3 4 5 6 7 8 9 10 11 12 13 14 15 17 19 20 22 24 25 26 27 28 29 30 31 32 33 34 35 0
1 -2 3 0
-1 -3 0
2 -3 0
4 5 6 0
-4 -6 0
-5 -6 0
7 8 9 0
-7 -9 0
-8 -9 0
-6 -9 10 0
6 -10 0
9 -10 0
-3 -10 11 0
3 -11 0
10 -11 0
12 13 14 0
-12 -14 0
-13 -14 0
-11 -14 15 0
11 -15 0
14 -15 0
16 5 17 0
-16 -17 0
-5 -17 0
-18 -2 19 0
18 -19 0
2 -19 0
17 19 20 0
-17 -20 0
-19 -20 0
-21 -13 22 0
21 -22 0
13 -22 0
23 8 24 0
-23 -24 0
-8 -24 0
-22 24 25 0
22 -25 0
-24 -25 0
-23 -8 26 0
23 -26 0
8 -26 0
25 26 27 0
-25 -27 0
-26 -27 0
-16 -5 28 0
16 -28 0
5 -28 0
-27 28 29 0
27 -29 0
-28 -29 0
-20 29 30 0
20 -30 0
-29 -30 0
18 2 31 0
-18 -31 0
-2 -31 0
30 31 32 0
-30 -32 0
-31 -32 0
-15 -32 33 0
15 -33 0
32 -33 0
15 32 34 0
-15 -34 0
-32 -34 0
33 34 35 0
-33 -35 0
-34 -35 0
-35 0
